*SENSE:Minimize
NAME          MODEL
ROWS
 N  OBJ
 L  C0000000
 L  C0000001
 G  C0000002
 G  C0000003
 L  C0000004
 G  C0000005
 L  C0000006
 G  C0000007
 L  C0000008
COLUMNS
    MARK      'MARKER'                 'INTORG'
    X0000000  C0000001   1.000000000000e+00
    X0000000  C0000002   1.000000000000e+00
    X0000000  C0000003   1.000000000000e+00
    X0000000  C0000004   1.000000000000e+00
    MARK      'MARKER'                 'INTEND'
    MARK      'MARKER'                 'INTORG'
    X0000001  C0000001  -1.000000000000e+00
    X0000001  C0000002  -1.000000000000e+00
    X0000001  C0000005   1.000000000000e+00
    X0000001  C0000006   1.000000000000e+00
    MARK      'MARKER'                 'INTEND'
    MARK      'MARKER'                 'INTORG'
    X0000002  C0000007   1.000000000000e+00
    X0000002  C0000008   1.000000000000e+00
    MARK      'MARKER'                 'INTEND'
    MARK      'MARKER'                 'INTORG'
    X0000003  C0000000   1.000000000000e+00
    X0000003  C0000001  -1.000000000000e+00
    X0000003  C0000002   1.000000000000e+00
    X0000003  OBJ        1.000000000000e+00
    MARK      'MARKER'                 'INTEND'
RHS
    RHS       C0000000   0.000000000000e+00
    RHS       C0000001  -2.000000000000e+00
    RHS       C0000002  -2.000000000000e+00
    RHS       C0000003  -2.147483648000e+09
    RHS       C0000004   2.147483647000e+09
    RHS       C0000005  -2.147483648000e+09
    RHS       C0000006   2.147483647000e+09
    RHS       C0000007  -2.147483648000e+09
    RHS       C0000008   2.147483647000e+09
BOUNDS
 LO BND       X0000000  -6.213744142726e+07
 UP BND       X0000000   1.214563250039e+09
 LO BND       X0000001  -1.393255742376e+09
 UP BND       X0000001   1.819589641413e+09
 LO BND       X0000002  -6.255996944711e+08
 UP BND       X0000002   7.481755974001e+08
 FR BND       X0000003
ENDATA
